STUDENTS = {Ruby,Maxine,Gilbert,Ian,Betty,Howard,Jeanne,Irene,Ron,Miriam,Judy,Louise,Tracey,Emma,Erica,Cynthia,Jeff,Alicia,Bonnie,Neil,Brandon,Henry,Walter,Gretchen,Toni,Dwight,Bob,Juan,Kent,Malcolm,Julie,Melissa,Bernard,Gary,Michele,Annette,Patricia,Katie,Kyle,Dorothy,Barry,Veronica,Diana,Lynda,Billie,Katherine,Brian,Roberta,Carlos,Catherine,Annie,Justin,Shelley,Johnny,Brooke,Beverly,Thelma,Betsy,Jamie,Josephine,Franklin,Tom,Nathan,Cecil,Kenneth,Andrew,Lee,Kerry,Vivian,Jeremy,Susan,Heather,Alice,Curtis,Shawn,Dennis,Joseph,Heidi,Sylvia,Brad,Danielle,Alan,Vincent,Alvin,Lawrence,Lewis,Lillian,Megan,Ronnie,Janet,Sheryl,Gail,Grace,Paige,Erin,Monica,Dianne,Janice,Barbara,Sherri,Joe,Ernest,LeRoy,Lloyd,Melinda,Charlie,Chad,Stephen,Dawn,Gerald,Richard,Allison,Kara,Maurice,Hannah,Ray,Craig,Louis,Wallace,Carmen,Sam,Katharine,Luis,Colleen,Kelly,Hilda,Greg,Martha,Carrie,Darlene,Hugh,Tiffany,Terri,Ralph,Mike,Karen,Jean,Brent,Rodney,Pamela,Clarence,Geraldine,Laurie,Julian,Marian,Jill,Martin,Randy,Edwin,Peggy};
T = 150;
LWB = 3;
UPB = 5;
apart = [|Ruby,Ernest|Maxine,Miriam|Maxine,Terri|Gilbert,Jeremy|Gilbert,Mike|Ian,Alvin|Howard,Lynda|Howard,Nathan|Howard,Carrie|Jeanne,Julie|Jeanne,Ralph|Jeanne,Mike|Irene,Tom|Irene,Alan|Irene,Terri|Irene,Peggy|Miriam,Alicia|Miriam,Josephine|Judy,Alicia|Judy,Neil|Judy,Kelly|Louise,Nathan|Louise,Martha|Emma,Luis|Emma,Hilda|Cynthia,Walter|Jeff,Gary|Bonnie,Franklin|Neil,Dennis|Brandon,Franklin|Henry,Craig|Henry,Terri|Gretchen,Joe|Dwight,Julie|Juan,Hugh|Kent,Lawrence|Kent,Pamela|Julie,Grace|Melissa,Brad|Melissa,Jill|Bernard,Katie|Gary,Justin|Gary,Tom|Gary,Megan|Gary,Laurie|Patricia,Jean|Patricia,Rodney|Katie,Shelley|Katie,Johnny|Kyle,Hilda|Dorothy,Shelley|Barry,Julian|Lynda,Janet|Billie,Franklin|Katherine,Grace|Katherine,Carmen|Brian,Gerald|Carlos,Clarence|Catherine,Joe|Annie,Geraldine|Johnny,Ray|Beverly,Thelma|Jamie,Alice|Jamie,Paige|Josephine,Richard|Josephine,Edwin|Franklin,Carmen|Tom,Richard|Kenneth,Paige|Kenneth,Lloyd|Kenneth,Gerald|Andrew,Hannah|Lee,Heather|Kerry,Kara|Susan,Sherri|Heather,Sylvia|Heather,Lloyd|Alice,Janet|Alice,Marian|Shawn,Ernest|Shawn,Chad|Shawn,Louis|Heidi,Kara|Heidi,Greg|Sylvia,Alan|Danielle,Janice|Alan,Monica|Vincent,Wallace|Ronnie,Lloyd|Janet,Grace|Janet,Chad|Janet,Marian|Sheryl,Maurice|Gail,Colleen|Paige,Clarence|Erin,Charlie|Janice,Joe|Joe,Richard|LeRoy,Tiffany|Lloyd,Edwin|Melinda,Karen|Chad,Pamela|Gerald,Edwin|Allison,Ralph|Kara,Carmen|Craig,Carmen|Katharine,Martin|Kelly,Carrie|Hilda,Ralph|Tiffany,Mike|Ralph,Peggy|];
together = [|Ruby,Stephen|Betty,Ray|Howard,Julie|Howard,Melissa|Howard,Katherine|Jeanne,Patricia|Jeanne,Erin|Irene,Heather|Irene,Louis|Irene,Karen|Irene,Geraldine|Ron,Cecil|Ron,Pamela|Miriam,Erin|Miriam,Martin|Judy,Bonnie|Judy,Bob|Judy,Karen|Tracey,Hugh|Erica,Justin|Erica,Dennis|Cynthia,Vivian|Cynthia,Monica|Cynthia,Wallace|Jeff,Alvin|Alicia,Annie|Alicia,Ronnie|Bonnie,Vincent|Neil,Darlene|Neil,Mike|Brandon,Gretchen|Brandon,Dianne|Brandon,Joe|Brandon,Lloyd|Brandon,Hannah|Brandon,Tiffany|Henry,Andrew|Toni,Alice|Dwight,Annie|Dwight,Craig|Dwight,Martin|Bob,Melissa|Juan,Jean|Juan,Geraldine|Kent,Sherri|Kent,Richard|Julie,Beverly|Gary,Shelley|Michele,Edwin|Michele,Peggy|Annette,Veronica|Dorothy,Heather|Barry,Paige|Veronica,Heather|Veronica,Alice|Veronica,Allison|Diana,Melinda|Lynda,Katharine|Lynda,Tiffany|Lynda,Rodney|Billie,Melinda|Billie,Hilda|Katherine,Greg|Brian,Lawrence|Catherine,Andrew|Catherine,Marian|Justin,Jamie|Shelley,Lillian|Shelley,Craig|Shelley,Terri|Johnny,Danielle|Johnny,Louis|Brooke,Edwin|Thelma,Lee|Thelma,Stephen|Betsy,Charlie|Betsy,Kara|Josephine,Hannah|Franklin,Katharine|Tom,Heidi|Andrew,Shawn|Andrew,Ernest|Andrew,Carmen|Lee,Janice|Lee,Hannah|Vivian,Brad|Jeremy,Louis|Susan,Megan|Curtis,Ernest|Joseph,Colleen|Heidi,Wallace|Brad,Tiffany|Danielle,Joe|Lawrence,Sam|Lillian,Hugh|Sheryl,Kara|Gail,Dianne|Dianne,Joe|Ernest,Melinda|Ernest,Louis|LeRoy,Dawn|Melinda,Laurie|Chad,Dawn|Chad,Jill|Stephen,Hannah|Richard,Louis|Allison,Luis|Allison,Greg|Kelly,Ralph|Kelly,Pamela|Carrie,Martin|Karen,Rodney|Brent,Laurie|Martin,Peggy|];
